
  22    4
  10   10   10   10

   0   0   0   0   0   3 2 3 4 
   1  10  10  10  10   5 12 9 7 6 5 
   9  10  10  10  10   5 12 9 8 7 6 
   8  10  10  10  10   4 12 10 8 7 
   2  10  10  10  10   4 14 11 10 8 
   5  10  10  10  10   3 14 13 10 
   7  10  10  10  10   3 18 14 13 
   6  10  10  10  10   3 18 15 13 
   2  10  10  10  10   3 18 15 13 
   6  10  10  10  10   3 21 18 15 
  10  10  10  10  10   2 15 13 
   3  10  10  10  10   2 21 15 
   8  10  10  10  10   2 21 16 
   2  10  10  10  10   1 15 
   9  10  10  10  10   1 16 
   9  10  10  10  10   1 17 
   8  10  10  10  10   2 20 19 
   3  10  10  10  10   2 20 19 
  10  10  10  10  10   1 22
   2  10  10  10  10   1 22
  10  10  10  10  10   1 22
   0   0   0   0   0   0 
